
Log started (V12.10.0.0) Sun Apr  4 08:17:02 2021


Problem 'asset.lp' read.
Read time = 0.01 sec. (0.25 ticks)
New value for default parallel thread count: 1
New value for time limit in seconds: 300
Version identifier: 12.10.0.0 | 2019-11-26 | 843d4de
CPXPARAM_Threads                                 1
CPXPARAM_TimeLimit                               300
Found incumbent of value -0.889599 after 0.00 sec. (0.11 ticks)
Tried aggregator 3 times.
MIP Presolve eliminated 841 rows and 493 columns.
MIP Presolve modified 2293 coefficients.
Aggregator did 609 substitutions.
Reduced MIP has 879 rows, 919 columns, and 3926 nonzeros.
Reduced MIP has 766 binaries, 111 generals, 0 SOSs, and 0 indicators.
Presolve time = 0.01 sec. (10.02 ticks)
Probing fixed 235 vars, tightened 25 bounds.
Probing time = 0.01 sec. (3.14 ticks)
Cover probing fixed 0 vars, tightened 84 bounds.
Tried aggregator 1 time.
MIP Presolve eliminated 307 rows and 298 columns.
MIP Presolve modified 152 coefficients.
Reduced MIP has 572 rows, 618 columns, and 2247 nonzeros.
Reduced MIP has 493 binaries, 83 generals, 0 SOSs, and 0 indicators.
Presolve time = 0.00 sec. (2.32 ticks)
Probing time = 0.00 sec. (1.65 ticks)
Tried aggregator 1 time.
Detecting symmetries...
MIP Presolve modified 58 coefficients.
Reduced MIP has 572 rows, 618 columns, and 2247 nonzeros.
Reduced MIP has 493 binaries, 83 generals, 0 SOSs, and 0 indicators.
Presolve time = 0.00 sec. (1.57 ticks)
Probing time = 0.00 sec. (1.64 ticks)
Clique table members: 2057.
MIP emphasis: balance optimality and feasibility.
MIP search method: dynamic search.
Parallel mode: none, using 1 thread.
Root relaxation solution time = 0.01 sec. (4.87 ticks)

        Nodes                                         Cuts/
   Node  Left     Objective  IInf  Best Integer    Best Bound    ItCnt     Gap

*     0+    0                           -0.8896      381.8190              --- 
      0     0      243.8620    95       -0.8896      243.8620      359     --- 
      0     0      235.7863    95       -0.8896     Cuts: 187      466     --- 
      0     0      234.4951    95       -0.8896     Cuts: 132      600     --- 
      0     0      233.9841    95       -0.8896      Cuts: 87      652     --- 
      0     0      233.5519    95       -0.8896      Cuts: 70      703     --- 
      0     0      232.9499    95       -0.8896      Cuts: 50      753     --- 
Detecting symmetries...
      0     0      231.7162    95       -0.8896      Cuts: 68      829     --- 
      0     0      231.2395    95       -0.8896      Cuts: 67      892     --- 
      0     0      231.0630    95       -0.8896      Cuts: 35      929     --- 
      0     0      230.8485    95       -0.8896      Cuts: 33      980     --- 
      0     0      230.6354    95       -0.8896      Cuts: 55     1015     --- 
      0     0      230.2808    95       -0.8896      Cuts: 28     1065     --- 
      0     0      230.1576    95       -0.8896      Cuts: 47     1097     --- 
      0     0      229.9819    95       -0.8896      Cuts: 25     1154     --- 
      0     0      229.9421    95       -0.8896      Cuts: 29     1189     --- 
      0     0      229.9231    95       -0.8896      Cuts: 40     1216     --- 
      0     0      229.9029    95       -0.8896      Cuts: 30     1237     --- 
*     0+    0                          190.6424      229.9029            20.59%
*     0+    0                          194.1521      229.9029            18.41%
*     0+    0                          203.3910      229.9029            13.03%
      0     0        cutoff            203.3910      229.9029     1237   13.03%
Detecting symmetries...
      0     2      229.9029   124      203.3910      229.9028     1237   13.03%
Elapsed time = 0.20 sec. (177.53 ticks, tree = 0.01 MB, solutions = 3)
*   100+   78                          203.3910      227.3450            11.78%
    211   164        cutoff            203.3910      226.4382     6194   11.33%
*   280+  195                          205.7102      226.2603             9.99%
*   380+  219                          210.1204      224.8012             6.99%
    429   239      212.7278   108      210.1204      223.9192    11948    6.57%
    634   327        cutoff            210.1204      222.3507    17779    5.82%
*   699   333      integral     0      210.1223      220.7530    20405    5.06%
*   730+  333                          210.3402      220.3595             4.76%
*   830+  312                          210.3402      218.7216             3.98%
*   860+  280                          211.5693      218.5084             3.28%
    863   285      211.8330    22      211.5693      218.5084    26116    3.28%
*   868   287      integral     0      211.5697      218.5084    26143    3.28%
*   968+  278                          211.5698      217.0455             2.59%
*  1000+  264                          211.5706      216.6032             2.38%
   1184   289      213.0900    14      211.5706      215.3303    32101    1.78%
   1517   379      214.0722    22      211.5706      214.0719    36563    1.18%
   2004   555      213.5410    18      211.5706      213.5419    40170    0.93%

Performing restart 1

Repeating presolve.
Tried aggregator 2 times.
MIP Presolve eliminated 1 rows and 0 columns.
MIP Presolve modified 270 coefficients.
Aggregator did 8 substitutions.
Reduced MIP has 563 rows, 610 columns, and 2026 nonzeros.
Reduced MIP has 485 binaries, 83 generals, 0 SOSs, and 0 indicators.
Presolve time = 0.00 sec. (2.29 ticks)
Tried aggregator 1 time.
Reduced MIP has 563 rows, 610 columns, and 2026 nonzeros.
Reduced MIP has 485 binaries, 83 generals, 0 SOSs, and 0 indicators.
Presolve time = 0.00 sec. (1.50 ticks)
Represolve time = 0.01 sec. (11.54 ticks)
   2058     0      229.2600   104      211.5706      Cuts: 99    41056    0.93%
   2058     0      228.0839   104      211.5706      Cuts: 85    41124    0.93%
   2058     0      227.7965   104      211.5706      Cuts: 73    41171    0.93%
   2058     0      227.3138   104      211.5706      Cuts: 59    41218    0.93%
   2058     0      227.1708   104      211.5706      Cuts: 47    41247    0.93%
   2058     0      227.1117   104      211.5706      Cuts: 42    41280    0.93%

Clique cuts applied:  17
Cover cuts applied:  2
Implied bound cuts applied:  24
Flow cuts applied:  1
Mixed integer rounding cuts applied:  14
Zero-half cuts applied:  25
Lift and project cuts applied:  1
Gomory fractional cuts applied:  1

Root node processing (before b&c):
  Real time             =    0.20 sec. (177.73 ticks)
Sequential b&c:
  Real time             =    2.45 sec. (2757.99 ticks)
                          ------------
Total (root+branch&cut) =    2.65 sec. (2935.72 ticks)

Solution pool: 14 solutions saved.

MIP - Integer optimal, tolerance (0.0001/1e-06):  Objective =  2.1157058928e+02
Current MIP best bound =  2.1157114533e+02 (gap = 0.000556044, 0.00%)
Solution time =    2.65 sec.  Iterations = 45517  Nodes = 2684 (6)
Deterministic time = 2935.73 ticks  (1108.27 ticks/sec)


Incumbent solution
Variable Name           Solution Value
F                           240.000000
f1                            0.919411
f2                           27.510000
y57                           1.000000
y118                          1.000000
y231                          1.000000
y94                           1.000000
y127                          1.000000
y229                          1.000000
y24                           1.000000
y149                          1.000000
y128                          1.000000
y114                          1.000000
y176                          1.000000
y103                          1.000000
y130                          1.000000
y168                          1.000000
y180                          1.000000
y35                           1.000000
s14                           6.000000
s50                           6.000000
s56                           6.000000
s57                           6.340851
s58                           6.000000
s61                           6.000000
s77                           6.000000
s85                           6.000000
s86                           6.000000
s107                          6.000000
s118                          6.163084
s121                          6.000000
s144                          6.000000
s200                          6.000000
s231                          6.628252
s240                          6.000000
s248                          6.000000
s261                          6.000000
s94                           6.712605
s154                          6.080000
s250                          6.090000
s112                          6.130000
s127                          7.132386
s220                          6.190000
s229                          6.583734
s245                          6.290000
s24                           7.322161
s149                          7.116764
s267                          6.430000
s181                          6.470000
s241                          6.480000
s128                          7.519984
s92                           6.620000
s264                          6.630000
s114                          6.906491
s176                          7.199590
s147                          6.770000
s150                          6.800000
s151                          6.800000
s103                          7.825116
s130                          7.794233
s12                           6.880000
s95                           6.880000
s168                          7.831120
s226                          6.930000
s175                          7.000000
s153                          7.010000
s180                          8.003559
s35                           7.638172
s20                           7.050000
x108x118x1                    1.000000
x158x114x1                    1.000000
x243x229x1                    2.000000
x160x35x1                     1.000000
x62x176x1                     2.000000
x73x127x2                     1.000000
x73x149x2                     1.000000
x246x149x2                    1.000000
x108x118x2                    1.000000
x52x57x2                      2.000000
x194x231x2                    1.000000
x206x94x2                     2.000000
x246x128x3                    1.000000
x158x114x3                    1.000000
x194x231x3                    1.000000
x160x127x3                    1.000000
x260x24x3                     2.000000
x38x103x3                     1.000000
x38x130x3                     1.000000
x57x130x2                     1.000000
x57x35x2                      1.000000
x118x168x1                    1.000000
x118x128x2                    1.000000
x231x0x2                      1.000000
x231x103x3                    1.000000
x94x0x2                       2.000000
x127x0x2                      1.000000
x127x0x3                      1.000000
x229x168x1                    1.000000
x229x180x1                    1.000000
x24x0x3                       2.000000
x149x0x2                      2.000000
x128x0x2                      1.000000
x128x0x3                      1.000000
x114x180x1                    1.000000
x114x0x3                      1.000000
x176x0x1                      2.000000
x103x0x3                      2.000000
x130x0x2                      1.000000
x130x0x3                      1.000000
x168x0x1                      2.000000
x180x0x1                      2.000000
x35x0x1                       1.000000
x35x0x2                       1.000000
s73                           5.015479
z73z127z2                     1.000000
z73z149z2                     1.000000
z73z150z2                     1.000000
s246                          5.135477
z246z149z2                    1.000000
z246z128z3                    1.000000
s108                          4.862881
z108z118z1                    1.000000
z108z118z2                    1.000000
z108z181z1                    1.000000
z108z176z1                    1.000000
z108z150z2                    1.000000
z108z168z1                    1.000000
z108z175z1                    1.000000
z108z180z1                    1.000000
z108z20z1                     1.000000
s158                          5.066279
z158z114z1                    1.000000
z158z114z3                    1.000000
z158z180z1                    1.000000
z158z20z1                     1.000000
s52                           4.912066
z52z57z2                      1.000000
z52z150z2                     1.000000
s194                          5.271237
z194z231z2                    1.000000
z194z231z3                    1.000000
z194z150z2                    1.000000
z194z103z3                    1.000000
s243                          5.148362
z243z229z1                    1.000000
z243z176z1                    1.000000
z243z168z1                    1.000000
z243z175z1                    1.000000
z243z180z1                    1.000000
z243z20z1                     1.000000
s160                          5.470000
z160z127z3                    1.000000
z160z35z1                     1.000000
z160z20z1                     1.000000
s62                           5.590000
z62z176z1                     1.000000
z62z20z1                      1.000000
s260                          5.830000
z260z24z3                     1.000000
z260z103z3                    1.000000
s38                           5.840000
z38z103z3                     1.000000
z38z130z3                     1.000000
s206                          4.639760
z206z94z2                     1.000000
z206z149z2                    1.000000
z206z150z2                    1.000000
z57z130z2                     1.000000
z57z35z2                      1.000000
z118z128z2                    1.000000
z118z168z1                    1.000000
z231z103z3                    1.000000
z229z168z1                    1.000000
z229z180z1                    1.000000
z114z180z1                    1.000000
All other variables in the range 1-2028 are 0.
